543 5
10 10 10 10 10 

0 0 0 0 0 0 5 2 14 26 38 50 
0 0 0 0 0 0 2 3 4 
10 0 1 0 0 0 1 5 
4 0 8 0 0 0 3 10 9 7 
7 0 6 0 0 0 1 6 
9 0 2 0 0 0 3 10 9 8 
1 0 4 0 0 0 1 8 
1 0 6 0 0 0 2 11 45 
4 0 8 0 0 0 1 12 
8 0 4 0 0 0 1 11 
4 0 5 0 0 0 1 13 
8 0 6 0 0 0 1 13 
0 0 0 0 0 0 1 62 
0 0 0 0 0 0 4 15 16 17 24 
9 0 0 0 0 1 1 18 
9 0 0 0 0 4 1 18 
2 0 0 0 0 8 3 23 21 20 
10 0 0 0 0 4 3 23 19 40 
4 0 0 0 0 8 1 20 
4 0 0 0 0 7 1 22 
8 0 0 0 0 3 1 22 
8 0 0 0 0 5 1 25 
1 0 0 0 0 5 1 25 
8 0 0 0 0 5 1 25 
0 0 0 0 0 0 1 62 
0 0 0 0 0 0 3 27 29 258 
6 3 0 0 0 0 3 33 31 28 
1 2 0 0 0 0 2 35 30 
9 10 0 0 0 0 2 35 30 
3 3 0 0 0 0 2 36 32 
7 5 0 0 0 0 2 35 32 
9 3 0 0 0 0 1 34 
3 6 0 0 0 0 1 34 
5 5 0 0 0 0 1 37 
1 8 0 0 0 0 1 37 
8 5 0 0 0 0 1 37 
0 0 0 0 0 0 1 62 
0 0 0 0 0 0 1 39 
6 0 0 0 0 1 2 43 40 
6 0 0 0 0 5 2 42 41 
1 0 0 0 0 5 4 48 47 45 44 
6 0 0 0 0 8 3 47 45 44 
9 0 0 0 0 7 2 45 44 
10 0 0 0 0 8 1 46 
4 0 0 0 0 2 1 46 
2 0 0 0 0 5 1 49 
2 0 0 0 0 4 2 49 128 
4 0 0 0 0 5 1 49 
0 0 0 0 0 0 1 62 
0 0 0 0 0 0 4 51 52 53 58 
7 0 0 1 0 0 2 56 55 
4 0 0 7 0 0 1 54 
4 0 0 9 0 0 1 54 
4 0 0 7 0 0 1 55 
8 0 0 4 0 0 2 60 57 
3 0 0 4 0 0 1 57 
1 0 0 3 0 0 2 59 388 
3 0 0 4 0 0 1 59 
5 0 0 6 0 0 1 61 
7 0 0 5 0 0 1 61 
0 0 0 0 0 0 1 62 
0 0 0 0 0 0 5 63 105 147 189 231 
0 0 0 0 0 0 2 64 68 
9 1 0 1 1 1 1 65 
7 2 0 5 4 3 2 67 66 
6 6 0 3 5 9 3 74 72 69 
4 5 0 2 6 5 3 86 72 70 
10 2 0 8 7 5 2 72 70 
5 4 0 6 2 5 1 70 
2 6 0 6 6 9 3 77 76 71 
10 2 0 8 3 3 2 85 73 
10 6 0 7 5 4 2 85 76 
7 5 0 5 6 6 1 75 
10 4 0 8 7 6 1 75 
3 3 0 5 4 5 3 87 84 78 
10 6 0 6 4 5 3 87 84 78 
4 3 0 2 7 5 5 91 87 84 81 80 
3 6 0 4 7 5 3 91 81 79 
10 4 0 7 10 6 1 80 
10 4 0 2 4 7 3 103 92 82 
10 5 0 5 7 3 2 92 82 
1 7 0 6 3 9 2 98 83 
4 4 0 4 4 5 4 102 96 94 88 
5 6 0 4 3 3 3 103 102 88 
3 7 0 2 5 6 2 93 87 
3 7 0 3 5 2 2 93 87 
2 6 0 3 4 6 4 101 95 92 513 
6 5 0 5 7 7 1 89 
1 6 0 3 3 4 1 90 
7 6 0 3 6 3 2 100 93 
5 8 0 4 2 7 2 100 93 
9 4 0 7 5 5 2 96 94 
3 3 0 10 5 6 2 101 95 
5 6 0 6 4 2 2 100 97 
8 9 0 4 6 6 1 97 
3 4 0 7 5 3 1 97 
4 7 0 3 7 1 1 99 
8 8 0 2 3 8 1 100 
6 4 0 6 7 5 1 104 
4 6 0 6 3 5 1 104 
2 3 0 7 7 5 1 104 
7 8 0 7 7 5 1 104 
10 2 0 8 4 5 1 104 
0 0 0 0 0 0 1 543 
0 0 0 0 0 0 2 106 110 
1 0 1 1 1 1 1 107 
9 0 7 6 6 5 2 109 108 
9 0 7 2 7 5 3 118 114 111 
10 0 4 5 6 6 3 128 120 112 
3 0 8 4 3 7 3 120 114 112 
5 0 2 3 7 5 2 120 112 
10 0 6 7 4 4 2 117 113 
2 0 6 7 7 8 2 127 115 
7 0 4 8 8 6 2 127 117 
2 0 6 8 5 1 1 116 
7 0 7 6 4 6 3 131 126 119 
10 0 2 5 3 5 3 131 126 119 
5 0 6 2 4 3 3 131 126 119 
10 0 5 4 5 8 3 136 123 121 
7 0 2 2 6 6 6 145 140 136 133 131 124 
7 0 4 6 3 7 1 122 
10 0 5 7 7 7 4 145 140 133 124 
9 0 6 8 2 4 2 133 124 
5 0 3 4 2 3 2 144 125 
2 0 8 4 3 4 2 138 129 
1 0 6 6 6 8 2 145 130 
8 0 5 3 4 7 2 137 131 
1 0 2 5 2 5 2 137 131 
6 0 5 7 8 6 1 130 
3 0 7 4 5 2 1 132 
9 0 5 4 5 4 3 143 138 135 
9 0 6 5 5 7 2 142 134 
9 0 6 8 6 3 2 138 135 
1 0 4 5 1 4 2 143 137 
7 0 3 4 8 6 2 142 139 
3 0 7 7 8 4 1 137 
2 0 6 2 5 6 1 139 
7 0 3 5 7 4 2 139 524 
4 0 6 7 9 4 1 141 
9 0 2 3 4 4 1 142 
9 0 7 4 5 4 1 146 
2 0 5 7 5 3 1 146 
3 0 6 5 3 7 1 146 
2 0 4 6 6 9 1 146 
1 0 6 4 5 2 1 146 
0 0 0 0 0 0 1 543 
0 0 0 0 0 0 2 148 151 
5 1 0 2 1 1 1 149 
1 5 0 4 4 6 3 181 153 150 
3 6 0 6 6 2 4 169 159 157 152 
4 3 0 4 7 5 2 157 155 
5 1 0 10 5 4 1 154 
7 3 0 3 4 7 4 174 169 158 156 
8 5 0 1 5 7 2 158 155 
5 4 0 3 4 6 2 174 156 
8 5 0 6 5 6 3 175 170 160 
3 4 0 5 4 7 2 175 158 
2 5 0 3 4 5 3 170 164 161 
1 5 0 3 1 7 4 175 170 164 162 
9 10 0 3 5 3 2 164 161 
1 3 0 9 4 5 2 178 162 
3 4 0 5 7 5 1 163 
7 4 0 8 3 5 5 187 186 180 173 165 
5 6 0 2 8 4 3 180 173 165 
1 2 0 5 9 6 2 185 166 
2 7 0 4 5 1 2 177 167 
8 6 0 5 5 7 1 168 
5 5 0 6 5 5 2 184 171 
6 7 0 7 5 5 2 175 172 
8 8 0 3 7 5 3 184 183 176 
9 3 0 8 3 3 1 172 
4 6 0 9 4 7 2 183 176 
10 4 0 8 6 6 2 184 177 
3 6 0 6 3 2 2 175 237 
8 9 0 3 3 1 2 183 182 
5 5 0 3 7 6 1 179 
10 6 0 6 5 7 1 179 
5 2 0 4 8 3 1 179 
2 4 0 6 4 5 1 182 
8 4 0 4 8 6 1 184 
10 4 0 4 5 8 1 182 
1 8 0 7 5 4 1 188 
8 9 0 4 3 10 1 188 
9 3 0 6 1 4 1 188 
5 4 0 4 8 4 1 188 
7 8 0 7 6 4 1 188 
2 6 0 4 8 6 1 188 
0 0 0 0 0 0 1 543 
0 0 0 0 0 0 2 190 196 
2 1 2 0 1 1 2 229 191 
8 4 3 0 5 6 2 194 192 
1 6 8 0 9 4 4 215 202 199 193 
9 6 2 0 9 4 1 195 
8 5 4 0 3 8 4 220 215 200 198 
7 8 7 0 3 4 2 200 197 
7 7 4 0 3 8 3 220 201 199 
5 4 3 0 8 6 2 220 198 
1 6 3 0 5 3 3 219 213 201 
8 4 8 0 4 7 2 219 200 
3 7 8 0 5 8 4 228 213 206 203 
2 2 2 0 6 7 3 228 206 203 
7 3 5 0 1 7 3 219 213 204 
3 4 5 0 4 4 1 204 
1 5 5 0 6 4 3 225 205 444 
8 4 5 0 6 8 4 227 226 218 207 
9 3 6 0 8 4 4 225 224 218 208 
1 7 2 0 10 3 2 224 208 
10 4 5 0 10 3 2 217 209 
6 4 6 0 6 2 1 210 
1 7 7 0 3 5 2 223 211 
8 7 6 0 8 4 1 212 
7 4 7 0 6 5 2 222 214 
3 7 7 0 6 6 1 214 
8 4 4 0 5 5 1 216 
1 7 10 0 3 4 1 219 
1 1 5 0 2 5 1 221 
5 5 5 0 2 8 1 221 
1 10 5 0 6 3 1 221 
8 4 5 0 3 3 1 222 
5 5 4 0 7 6 1 222 
7 2 6 0 2 6 1 230 
8 6 5 0 4 2 1 230 
10 9 4 0 9 9 1 230 
2 3 5 0 4 3 1 230 
7 3 4 0 5 7 1 230 
1 5 8 0 2 4 1 230 
9 7 3 0 2 5 1 230 
9 7 4 0 3 7 1 230 
3 3 3 0 6 2 1 230 
0 0 0 0 0 0 1 543 
0 0 0 0 0 0 3 232 233 234 
3 1 0 0 0 0 2 238 235 
8 6 0 0 0 0 3 237 235 486 
8 3 0 0 0 0 1 235 
1 7 0 0 0 0 1 236 
6 6 0 0 0 0 1 239 
4 8 0 0 0 0 1 239 
2 5 0 0 0 0 1 239 
10 6 0 0 0 0 2 241 240 
1 4 0 0 0 0 1 242 
5 4 0 0 0 0 1 242 
0 0 0 0 0 0 5 243 275 307 319 351 
0 0 0 0 0 0 3 244 245 250 
10 1 0 1 1 0 2 255 246 
9 5 0 5 7 0 2 255 246 
3 5 0 6 5 0 2 251 247 
2 2 0 4 4 0 2 253 248 
4 6 0 5 3 0 1 249 
4 6 0 3 5 0 3 260 259 252 
8 2 0 6 4 0 3 266 262 255 
5 6 0 3 6 0 1 253 
7 3 0 3 7 0 1 254 
3 6 0 4 4 0 1 254 
10 3 0 8 6 0 3 266 262 256 
7 9 0 9 4 0 2 259 256 
3 7 0 8 5 0 1 257 
7 5 0 7 9 0 2 265 258 
4 6 0 7 5 0 1 261 
3 7 0 3 5 0 1 261 
2 6 0 6 5 0 1 261 
9 4 0 3 2 0 2 273 263 
3 2 0 2 4 0 2 273 263 
4 4 0 4 7 0 2 268 264 
6 7 0 8 6 0 4 272 271 269 267 
8 7 0 8 7 0 2 269 267 
3 4 0 4 5 0 2 273 271 
5 5 0 6 3 0 1 270 
7 8 0 3 3 0 2 269 305 
9 9 0 5 5 0 1 274 
1 2 0 2 9 0 1 274 
9 2 0 8 6 0 1 274 
10 6 0 6 3 0 1 274 
2 5 0 3 5 0 1 274 
0 0 0 0 0 0 1 543 
0 0 0 0 0 0 3 276 280 305 
3 2 1 0 1 0 2 304 277 
8 7 7 0 3 0 2 302 278 
2 6 7 0 5 0 1 279 
3 8 5 0 5 0 4 301 300 281 437 
6 2 3 0 4 0 5 303 300 299 298 283 
10 9 6 0 5 0 1 282 
3 4 6 0 7 0 3 299 298 283 
2 3 4 0 4 0 2 297 284 
5 10 6 0 6 0 2 296 285 
1 5 6 0 6 0 1 286 
2 2 4 0 3 0 1 287 
1 3 7 0 5 0 2 295 288 
3 5 5 0 4 0 4 294 293 292 289 
4 5 8 0 4 0 1 290 
9 3 3 0 3 0 1 291 
4 3 3 0 5 0 1 306 
4 3 5 0 4 0 1 306 
3 4 3 0 6 0 1 306 
7 7 3 0 7 0 1 306 
5 6 6 0 9 0 1 306 
6 10 5 0 7 0 1 306 
3 2 4 0 10 0 1 306 
3 5 5 0 4 0 1 306 
1 4 9 0 3 0 1 306 
9 4 5 0 5 0 1 306 
10 6 3 0 3 0 1 306 
7 5 4 0 6 0 1 306 
7 5 3 0 5 0 1 306 
10 10 8 0 5 0 1 306 
2 2 6 0 6 0 1 306 
0 0 0 0 0 0 1 543 
0 0 0 0 0 0 4 308 309 310 312 
7 0 1 0 0 0 2 317 313 
7 0 5 0 0 0 1 311 
9 0 4 0 0 0 3 316 314 389 
9 0 4 0 0 0 1 313 
8 0 6 0 0 0 1 313 
2 0 8 0 0 0 1 314 
3 0 5 0 0 0 1 315 
8 0 7 0 0 0 1 318 
6 0 6 0 0 0 1 318 
10 0 4 0 0 0 1 318 
0 0 0 0 0 0 5 383 405 427 439 461 
0 0 0 0 0 0 3 320 321 349 
10 1 4 1 0 0 2 348 322 
9 3 3 5 0 0 2 348 322 
9 4 5 4 0 0 2 326 323 
4 4 7 6 0 0 2 332 324 
8 10 8 4 0 0 3 347 341 325 
9 4 2 7 0 0 1 327 
4 3 5 3 0 0 4 340 335 332 329 
3 8 7 5 0 0 2 335 328 
9 1 7 7 0 0 2 340 329 
7 6 6 9 0 0 2 337 330 
10 4 6 3 0 0 1 331 
8 5 4 5 0 0 2 346 333 
10 4 3 2 0 0 2 346 333 
8 3 6 3 0 0 1 334 
2 7 6 5 0 0 3 345 339 336 
8 8 7 8 0 0 3 346 345 336 
10 6 2 4 0 0 3 344 343 338 
5 7 4 5 0 0 2 338 497 
10 7 7 4 0 0 1 342 
5 4 4 5 0 0 1 343 
3 7 2 4 0 0 1 346 
7 3 10 5 0 0 1 342 
8 4 6 9 0 0 1 350 
7 4 4 7 0 0 1 350 
10 4 5 4 0 0 1 350 
2 5 6 3 0 0 1 350 
9 3 5 7 0 0 1 350 
2 5 2 6 0 0 1 350 
2 7 4 5 0 0 1 350 
1 9 3 5 0 0 1 350 
0 0 0 0 0 0 1 543 
0 0 0 0 0 0 3 352 353 368 
10 2 2 0 2 0 2 371 354 
3 1 3 0 5 0 2 371 354 
2 7 7 0 6 0 2 358 355 
1 3 4 0 3 0 2 361 356 
1 6 6 0 10 0 2 381 357 
1 2 4 0 5 0 2 369 359 
10 6 3 0 8 0 2 361 360 
4 10 5 0 3 0 1 360 
1 5 5 0 6 0 3 375 365 362 
1 6 4 0 7 0 3 375 372 363 
7 7 10 0 6 0 2 372 363 
3 6 2 0 8 0 1 364 
10 6 10 0 7 0 2 380 366 
10 6 5 0 3 0 2 380 367 
8 3 4 0 7 0 1 367 
7 7 3 0 3 0 3 379 374 370 
7 3 5 0 4 0 3 380 374 370 
4 5 4 0 3 0 2 379 370 
8 3 9 0 4 0 3 378 377 373 
2 4 6 0 6 0 2 377 376 
5 3 1 0 3 0 1 373 
6 5 7 0 4 0 1 376 
2 8 9 0 6 0 2 377 480 
3 5 5 0 5 0 1 380 
5 8 4 0 2 0 1 382 
10 5 4 0 7 0 1 382 
8 4 4 0 5 0 1 382 
9 7 4 0 4 0 1 382 
5 3 5 0 4 0 1 382 
10 4 6 0 4 0 1 382 
0 0 0 0 0 0 1 543 
0 0 0 0 0 0 1 384 
4 1 1 0 0 0 1 385 
1 4 9 0 0 0 2 387 386 
8 3 8 0 0 0 1 388 
5 4 4 0 0 0 1 388 
6 6 5 0 0 0 1 389 
8 3 2 0 0 0 2 391 390 
2 5 4 0 0 0 2 395 392 
6 7 7 0 0 0 2 395 392 
4 7 8 0 0 0 4 397 396 394 393 
1 3 3 0 0 0 6 403 402 400 399 398 508 
9 4 4 0 0 0 5 403 402 400 399 398 
6 4 4 0 0 0 5 403 402 400 399 398 
7 7 5 0 0 0 4 402 400 399 398 
4 3 9 0 0 0 3 403 402 398 
8 9 4 0 0 0 1 401 
8 7 2 0 0 0 1 401 
3 4 7 0 0 0 1 401 
7 6 4 0 0 0 1 404 
6 5 5 0 0 0 1 404 
7 8 5 0 0 0 1 404 
0 0 0 0 0 0 1 543 
0 0 0 0 0 0 2 406 408 
4 2 0 0 0 2 2 411 407 
2 4 0 0 0 2 2 409 515 
6 2 0 0 0 6 1 409 
2 6 0 0 0 5 2 412 410 
6 2 0 0 0 7 4 417 416 414 413 
9 5 0 0 0 3 3 417 415 412 
4 2 0 0 0 5 3 418 416 414 
5 8 0 0 0 4 2 418 415 
2 3 0 0 0 4 3 425 424 419 
9 10 0 0 0 5 2 425 419 
8 6 0 0 0 6 2 424 419 
10 7 0 0 0 4 2 424 419 
1 7 0 0 0 7 3 424 423 421 
4 7 0 0 0 5 2 423 420 
10 2 0 0 0 10 1 421 
8 3 0 0 0 5 1 422 
2 6 0 0 0 5 1 426 
2 5 0 0 0 6 1 426 
2 3 0 0 0 5 1 426 
1 10 0 0 0 4 1 426 
0 0 0 0 0 0 1 543 
0 0 0 0 0 0 4 428 430 433 503 
10 0 1 0 0 0 1 429 
6 0 9 0 0 0 2 432 431 
3 0 7 0 0 0 2 435 431 
9 0 2 0 0 0 2 437 434 
7 0 4 0 0 0 2 437 435 
3 0 9 0 0 0 2 437 434 
10 0 4 0 0 0 1 436 
2 0 5 0 0 0 1 436 
9 0 5 0 0 0 1 438 
9 0 4 0 0 0 1 438 
0 0 0 0 0 0 5 483 495 507 519 531 
0 0 0 0 0 0 9 440 444 453 454 455 456 457 458 459 
8 0 0 1 0 1 2 452 441 
2 0 0 3 0 6 2 451 442 
8 0 0 3 0 9 1 443 
2 0 0 5 0 8 1 445 
10 0 0 5 0 6 1 445 
7 0 0 6 0 5 1 446 
3 0 0 5 0 6 1 447 
9 0 0 8 0 3 1 448 
4 0 0 5 0 4 1 449 
2 0 0 7 0 3 1 450 
7 0 0 4 0 7 1 460 
9 0 0 6 0 6 1 460 
1 0 0 5 0 3 2 460 538 
9 0 0 5 0 5 1 460 
8 0 0 8 0 3 1 460 
10 0 0 6 0 6 1 460 
8 0 0 6 0 4 1 460 
7 0 0 3 0 7 1 460 
7 0 0 5 0 5 1 460 
5 0 0 4 0 3 1 460 
0 0 0 0 0 0 1 543 
0 0 0 0 0 0 1 462 
10 0 1 0 1 0 2 475 463 
6 0 4 0 4 0 2 466 464 
3 0 5 0 4 0 1 465 
3 0 8 0 7 0 2 476 467 
10 0 3 0 6 0 1 467 
8 0 7 0 4 0 4 473 471 470 468 
3 0 2 0 3 0 1 469 
5 0 5 0 6 0 2 480 472 
8 0 6 0 8 0 2 480 472 
6 0 8 0 7 0 1 472 
1 0 6 0 2 0 2 478 474 
9 0 4 0 10 0 2 478 474 
8 0 5 0 6 0 2 479 477 
9 0 7 0 4 0 2 478 477 
2 0 6 0 2 0 1 481 
2 0 5 0 5 0 2 482 486 
2 0 1 0 4 0 1 482 
1 0 5 0 6 0 1 482 
5 0 7 0 5 0 1 482 
9 0 5 0 6 0 1 482 
0 0 0 0 0 0 1 543 
0 0 0 0 0 0 4 484 485 486 487 
7 0 0 0 0 1 3 490 488 517 
2 0 0 0 0 6 2 490 488 
10 0 0 0 0 7 2 490 488 
2 0 0 0 0 5 2 490 488 
3 0 0 0 0 5 1 489 
8 0 0 0 0 9 2 492 491 
3 0 0 0 0 5 2 492 491 
7 0 0 0 0 3 1 493 
2 0 0 0 0 3 1 493 
9 0 0 0 0 6 1 494 
0 0 0 0 0 0 1 543 
0 0 0 0 0 0 6 496 498 501 504 505 508 
3 0 0 1 0 0 1 497 
2 0 0 5 0 0 1 499 
8 0 0 5 0 0 1 499 
10 0 0 3 0 0 1 500 
3 0 0 6 0 0 1 502 
4 0 0 7 0 0 1 503 
5 0 0 7 0 0 1 506 
5 0 0 4 0 0 1 506 
6 0 0 7 0 0 1 506 
4 0 0 5 0 0 1 506 
0 0 0 0 0 0 1 543 
0 0 0 0 0 0 1 508 
2 0 0 1 0 0 3 513 510 509 
10 0 0 10 0 0 2 512 511 
7 0 0 8 0 0 1 511 
9 0 0 3 0 0 4 517 515 514 528 
6 0 0 5 0 0 2 515 514 
6 0 0 5 0 0 2 517 515 
2 0 0 4 0 0 1 516 
7 0 0 5 0 0 1 518 
6 0 0 3 0 0 1 518 
10 0 0 6 0 0 1 518 
0 0 0 0 0 0 1 543 
0 0 0 0 0 0 5 520 522 525 526 529 
1 0 0 0 1 0 2 528 521 
2 0 0 0 5 0 1 523 
7 0 0 0 3 0 1 523 
5 0 0 0 10 0 1 524 
8 0 0 0 5 0 2 527 540 
8 0 0 0 9 0 1 528 
3 0 0 0 8 0 1 527 
5 0 0 0 3 0 1 530 
2 0 0 0 3 0 1 530 
7 0 0 0 3 0 1 530 
0 0 0 0 0 0 1 543 
0 0 0 0 0 0 5 532 534 535 537 541 
10 1 0 0 0 0 2 540 533 
2 5 0 0 0 0 1 536 
5 9 0 0 0 0 2 540 539 
4 9 0 0 0 0 2 540 539 
3 3 0 0 0 0 1 538 
4 6 0 0 0 0 1 538 
7 3 0 0 0 0 1 539 
1 5 0 0 0 0 1 542 
9 4 0 0 0 0 1 542 
3 5 0 0 0 0 1 542 
0 0 0 0 0 0 1 543 
0 0 0 0 0 0 0 
